
Gurobi 10.0.0 (linux64) logging started Thu Nov 24 08:55:50 2022

Set parameter LogFile to value "../results/k03_n050_d005/k03_n056_d007_3-Insertions_3_A-MILO_log.txt"
Gurobi Optimizer version 10.0.0 build v10.0.0rc2 (linux64)

CPU model: Intel(R) Xeon(R) CPU E5-2630 v4 @ 2.20GHz, instruction set [SSE2|AVX|AVX2]
Thread count: 20 physical cores, 40 logical processors, using up to 10 threads

Optimize a model with 1046 rows, 278 columns and 3138 nonzeros
Model fingerprint: 0x4a329ca6
Coefficient statistics:
  Matrix range     [1e+00, 1e+00]
  Objective range  [1e+00, 1e+00]
  Bounds range     [1e+00, 1e+00]
  RHS range        [1e+00, 2e+00]
Presolve removed 29 rows and 7 columns
Presolve time: 0.00s
Presolved: 1017 rows, 271 columns, 3043 nonzeros

Iteration    Objective       Primal Inf.    Dual Inf.      Time
       0    1.1000000e+02   9.400000e+01   0.000000e+00      0s
      94    1.1000000e+02   0.000000e+00   0.000000e+00      0s

Solved in 94 iterations and 0.00 seconds (0.00 work units)
Optimal objective  1.100000000e+02
